c instance by G2
c solution = 1111010100010110110
c Known solution cost is 953 
p cnf 19 30
w 68 96 48 79 19 44 39 28 94 35 20 74 81 20 22 44 57 85 0
-4 -15 14 0
2 -8 -4 0
10 11 4 0
13 -3 1 0
13 8 -12 0
12 -8 -7 0
-17 -1 3 0
11 4 -8 0
-18 -1 -13 0
14 -9 -12 0
1 8 -9 0
7 -11 -1 0
-6 -14 15 0
-19 -17 16 0
5 -3 12 0
-15 16 -9 0
7 6 -4 0
-17 2 -9 0
9 15 -14 0
16 11 18 0
17 5 7 0
1 7 -11 0
-14 13 -5 0
-7 11 9 0
-5 6 -9 0
-2 6 -1 0
-16 -6 19 0
-11 13 -9 0
17 6 -14 0
-10 -12 -8 0
